c description: There is a graph of 4 vertices with a 6-clique and a 2-coloring
c generator: CNFgen (0.9.0)
c copyright: (C) 2012-2020 Massimo Lauria <massimo.lauria@uniroma1.it>
c url: https://massimolauria.net/cnfgen
c
p cnf 38 302
-7 -8 0
-7 -9 0
-7 -10 0
-8 -9 0
-8 -10 0
-9 -10 0
7 8 9 10 0
-11 -12 0
-11 -13 0
-11 -14 0
-12 -13 0
-12 -14 0
-13 -14 0
11 12 13 14 0
-15 -16 0
-15 -17 0
-15 -18 0
-16 -17 0
-16 -18 0
-17 -18 0
15 16 17 18 0
-19 -20 0
-19 -21 0
-19 -22 0
-20 -21 0
-20 -22 0
-21 -22 0
19 20 21 22 0
-23 -24 0
-23 -25 0
-23 -26 0
-24 -25 0
-24 -26 0
-25 -26 0
23 24 25 26 0
-27 -28 0
-27 -29 0
-27 -30 0
-28 -29 0
-28 -30 0
-29 -30 0
27 28 29 30 0
-7 -11 0
-7 -15 0
-7 -19 0
-7 -23 0
-7 -27 0
-11 -15 0
-11 -19 0
-11 -23 0
-11 -27 0
-15 -19 0
-15 -23 0
-15 -27 0
-19 -23 0
-19 -27 0
-23 -27 0
-8 -12 0
-8 -16 0
-8 -20 0
-8 -24 0
-8 -28 0
-12 -16 0
-12 -20 0
-12 -24 0
-12 -28 0
-16 -20 0
-16 -24 0
-16 -28 0
-20 -24 0
-20 -28 0
-24 -28 0
-9 -13 0
-9 -17 0
-9 -21 0
-9 -25 0
-9 -29 0
-13 -17 0
-13 -21 0
-13 -25 0
-13 -29 0
-17 -21 0
-17 -25 0
-17 -29 0
-21 -25 0
-21 -29 0
-25 -29 0
-10 -14 0
-10 -18 0
-10 -22 0
-10 -26 0
-10 -30 0
-14 -18 0
-14 -22 0
-14 -26 0
-14 -30 0
-18 -22 0
-18 -26 0
-18 -30 0
-22 -26 0
-22 -30 0
-26 -30 0
1 -7 -12 0
1 -7 -16 0
1 -7 -20 0
1 -7 -24 0
1 -7 -28 0
1 -11 -8 0
1 -11 -16 0
1 -11 -20 0
1 -11 -24 0
1 -11 -28 0
1 -15 -8 0
1 -15 -12 0
1 -15 -20 0
1 -15 -24 0
1 -15 -28 0
1 -19 -8 0
1 -19 -12 0
1 -19 -16 0
1 -19 -24 0
1 -19 -28 0
1 -23 -8 0
1 -23 -12 0
1 -23 -16 0
1 -23 -20 0
1 -23 -28 0
1 -27 -8 0
1 -27 -12 0
1 -27 -16 0
1 -27 -20 0
1 -27 -24 0
2 -7 -13 0
2 -7 -17 0
2 -7 -21 0
2 -7 -25 0
2 -7 -29 0
2 -11 -9 0
2 -11 -17 0
2 -11 -21 0
2 -11 -25 0
2 -11 -29 0
2 -15 -9 0
2 -15 -13 0
2 -15 -21 0
2 -15 -25 0
2 -15 -29 0
2 -19 -9 0
2 -19 -13 0
2 -19 -17 0
2 -19 -25 0
2 -19 -29 0
2 -23 -9 0
2 -23 -13 0
2 -23 -17 0
2 -23 -21 0
2 -23 -29 0
2 -27 -9 0
2 -27 -13 0
2 -27 -17 0
2 -27 -21 0
2 -27 -25 0
3 -7 -14 0
3 -7 -18 0
3 -7 -22 0
3 -7 -26 0
3 -7 -30 0
3 -11 -10 0
3 -11 -18 0
3 -11 -22 0
3 -11 -26 0
3 -11 -30 0
3 -15 -10 0
3 -15 -14 0
3 -15 -22 0
3 -15 -26 0
3 -15 -30 0
3 -19 -10 0
3 -19 -14 0
3 -19 -18 0
3 -19 -26 0
3 -19 -30 0
3 -23 -10 0
3 -23 -14 0
3 -23 -18 0
3 -23 -22 0
3 -23 -30 0
3 -27 -10 0
3 -27 -14 0
3 -27 -18 0
3 -27 -22 0
3 -27 -26 0
4 -8 -13 0
4 -8 -17 0
4 -8 -21 0
4 -8 -25 0
4 -8 -29 0
4 -12 -9 0
4 -12 -17 0
4 -12 -21 0
4 -12 -25 0
4 -12 -29 0
4 -16 -9 0
4 -16 -13 0
4 -16 -21 0
4 -16 -25 0
4 -16 -29 0
4 -20 -9 0
4 -20 -13 0
4 -20 -17 0
4 -20 -25 0
4 -20 -29 0
4 -24 -9 0
4 -24 -13 0
4 -24 -17 0
4 -24 -21 0
4 -24 -29 0
4 -28 -9 0
4 -28 -13 0
4 -28 -17 0
4 -28 -21 0
4 -28 -25 0
5 -8 -14 0
5 -8 -18 0
5 -8 -22 0
5 -8 -26 0
5 -8 -30 0
5 -12 -10 0
5 -12 -18 0
5 -12 -22 0
5 -12 -26 0
5 -12 -30 0
5 -16 -10 0
5 -16 -14 0
5 -16 -22 0
5 -16 -26 0
5 -16 -30 0
5 -20 -10 0
5 -20 -14 0
5 -20 -18 0
5 -20 -26 0
5 -20 -30 0
5 -24 -10 0
5 -24 -14 0
5 -24 -18 0
5 -24 -22 0
5 -24 -30 0
5 -28 -10 0
5 -28 -14 0
5 -28 -18 0
5 -28 -22 0
5 -28 -26 0
6 -9 -14 0
6 -9 -18 0
6 -9 -22 0
6 -9 -26 0
6 -9 -30 0
6 -13 -10 0
6 -13 -18 0
6 -13 -22 0
6 -13 -26 0
6 -13 -30 0
6 -17 -10 0
6 -17 -14 0
6 -17 -22 0
6 -17 -26 0
6 -17 -30 0
6 -21 -10 0
6 -21 -14 0
6 -21 -18 0
6 -21 -26 0
6 -21 -30 0
6 -25 -10 0
6 -25 -14 0
6 -25 -18 0
6 -25 -22 0
6 -25 -30 0
6 -29 -10 0
6 -29 -14 0
6 -29 -18 0
6 -29 -22 0
6 -29 -26 0
-31 -32 0
31 32 0
-33 -34 0
33 34 0
-35 -36 0
35 36 0
-37 -38 0
37 38 0
-1 -31 -33 0
-1 -32 -34 0
-2 -31 -35 0
-2 -32 -36 0
-3 -31 -37 0
-3 -32 -38 0
-4 -33 -35 0
-4 -34 -36 0
-5 -33 -37 0
-5 -34 -38 0
-6 -35 -37 0
-6 -36 -38 0